NAME: CMT1_9
TYPE: CVRP
COMMENT: 524.61 - Cluster Nr.9
DIMENSION: 5
CAPACITY: 160
EDGE_WEIGHT_TYPE: EUC_2D
NODE_COORD_TYPE: TWOD_COORDS
NODE_COORD_SECTION: 
1 59 15
3 51 21
4 46 10
2 39 10
5 30 40
DEPOT_SECTION: 
5
-1
DEMAND_SECTION: 
1 14
3 5
4 23
5 0
2 10
EOF
